programiranje_ogranicenja/primeri/22raspored.dzn
brOdeljenja = 5;
casovaDnevno = 5;
brDana = 5;
brNastavnika = 20;

podelaNastave = [|1, 1, 1, 1, 2, 2, 3, 3, 3, 4, 4, 5, 6, 7, 7, 7, 8, 9,10, 10, 10, 11, 11, 12, 13|
                             1, 1, 1, 1, 14, 14, 14, 15, 4, 5, 6, 7, 7, 7, 16, 17, 18, 18, 10, 10, 10, 12, 13, 3, 3|
                             19,19,19,19,2,2,7,7,8,12,13,19,16,16,16,13,12,19,20,20,20,6,6,6,4|
                             20,20,20,20,3,3,3,4,8,8,9,9,9,11,12,13,15,15,15,17,19,6,5,5,5|
                             14,14,14,14,12,12,11,9,9,8,4,5,11,11,18,19,20,4,4,4,3,5,5,5,6|];
                             
sledeciUBloku = [|2,0,4,0,6,0,8,9,0,0,0,0,0,15,16,0,0,0,0,0,0,23,0,0,0|
                            2,0,4,0,6,7,0,0,0,0,0,13,0,0,0,0,0,0,20,21,0,0,0,0,0|
                            2,0,4,0,6,0,8,0,0,0,0,0,0,15,0,0,0,0,20,0,0,0,0,0,0|
                            2,0,4,0,0,7,0,0,0,0,0,0,0,0,0,0,0,0,0,0,0,0,24,25,0|
                            2,0,4,0,0,7,0,0,0,0,0,0,14,0,0,0,0,0,0,0,0,0,24,25,0|];
                            